
Gurobi 11.0.3 (linux64) logging started Mon 18 Nov 2024 10:03:25 PM CST

Set parameter LogFile to value "/home/dlcole3/graph_abstraction/hierarchical_graphs/git_storage/CS1/HP_low_reserves/gurobi_logs/serial/logfile_ST15_8.log"

Gurobi 11.0.3 (linux64) logging started Mon 18 Nov 2024 10:11:29 PM CST

Set parameter LogFile to value "/home/dlcole3/graph_abstraction/hierarchical_graphs/git_storage/CS1/HP_low_reserves/gurobi_logs/serial/logfile_ST15_8.log"
Gurobi Optimizer version 11.0.3 build v11.0.3rc0 (linux64 - "Ubuntu 18.04.3 LTS")

CPU model: Intel(R) Xeon(R) CPU E5-2698 v4 @ 2.20GHz, instruction set [SSE2|AVX|AVX2]
Thread count: 40 physical cores, 80 logical processors, using up to 20 threads

Optimize a model with 29168 rows, 50688 columns and 136175 nonzeros
Model fingerprint: 0x20ce1d31
Variable types: 46944 continuous, 3744 integer (3744 binary)
Coefficient statistics:
  Matrix range     [6e-01, 2e+04]
  Objective range  [2e+00, 2e+04]
  Bounds range     [5e-02, 2e+05]
  RHS range        [2e-03, 7e+03]
Presolve removed 13170 rows and 38121 columns
Presolve time: 0.35s
Presolved: 15998 rows, 12567 columns, 66756 nonzeros
Variable types: 9599 continuous, 2968 integer (2968 binary)
Found heuristic solution: objective 1081019.9282

Root relaxation: objective 1.075161e+05, 9168 iterations, 0.51 seconds (0.42 work units)

    Nodes    |    Current Node    |     Objective Bounds      |     Work
 Expl Unexpl |  Obj  Depth IntInf | Incumbent    BestBd   Gap | It/Node Time

     0     0 107516.080    0   48 1081019.93 107516.080  90.1%     -    1s
H    0     0                    108259.68258 107516.080  0.69%     -    1s
H    0     0                    108259.68256 107517.685  0.69%     -    2s
     0     0 107517.685    0   48 108259.683 107517.685  0.69%     -    2s
     0     0 107517.685    0   24 108259.683 107517.685  0.69%     -    2s
     0     0 107520.580    0   24 108259.683 107520.580  0.68%     -    2s
     0     0 107561.296    0   34 108259.683 107561.296  0.65%     -    3s
H    0     0                    108066.40766 107561.930  0.47%     -    3s
     0     0 107567.670    0   24 108066.408 107567.670  0.46%     -    3s
     0     0 107590.256    0   34 108066.408 107590.256  0.44%     -    3s
H    0     0                    107760.37019 107590.476  0.16%     -    3s

Cutting planes:
  Gomory: 2

Explored 1 nodes (16093 simplex iterations) in 3.77 seconds (2.33 work units)
Thread count was 20 (of 80 available processors)

Solution count 5: 107760 107760 108066 ... 1.08102e+06

Optimal solution found (tolerance 3.00e-03)
Best objective 1.077603701910e+05, best bound 1.075904756645e+05, gap 0.1577%

User-callback calls 1658, time in user-callback 0.00 sec
